p tw 916 1644
1 694
1 695
1 897
1 898
2 486
2 487
3 421
3 422
4 564
4 565
5 645
5 646
6 429
6 430
7 583
7 584
8 414
8 415
9 373
9 374
9 727
9 728
10 382
10 383
10 621
10 622
11 834
11 835
12 579
12 580
12 680
12 681
12 883
12 884
13 404
13 405
13 595
13 596
13 686
13 687
13 887
13 888
14 710
14 711
14 817
14 818
15 447
15 448
15 478
15 479
16 892
16 893
17 438
17 439
18 861
18 862
19 877
19 878
20 737
20 738
21 622
21 623
21 818
21 819
22 501
22 502
23 433
23 434
23 623
23 624
24 761
24 762
25 671
25 672
25 873
25 874
26 380
26 381
26 637
26 638
27 470
27 471
28 483
28 484
29 720
29 721
30 633
30 634
30 800
30 801
31 588
31 589
32 345
32 452
33 542
33 543
34 491
34 492
34 729
34 730
35 520
35 521
35 644
35 645
35 846
35 847
35 910
35 911
36 463
36 464
37 426
37 427
38 434
38 435
39 619
39 620
40 461
40 462
41 543
41 544
42 780
42 781
43 517
43 518
43 642
43 643
43 845
43 846
44 405
44 406
45 570
45 571
46 683
46 684
47 643
47 644
48 554
48 555
48 666
48 667
49 416
49 417
50 575
50 576
50 783
50 784
51 551
51 552
52 442
52 443
53 536
53 537
54 397
54 398
55 518
55 519
56 469
56 470
57 689
57 690
58 754
58 755
59 499
59 500
60 428
60 429
60 505
60 506
61 597
61 598
61 791
61 792
61 889
61 890
62 571
62 572
63 568
63 569
64 398
64 399
65 451
65 452
65 608
65 609
65 691
65 692
65 893
65 894
66 625
66 626
67 437
67 438
67 790
67 791
68 746
68 747
69 626
69 627
70 480
70 481
71 620
71 621
71 816
71 817
72 582
72 583
72 681
72 682
72 806
72 807
72 885
72 886
73 546
73 547
74 563
74 564
75 604
75 605
76 762
76 763
77 695
77 696
77 915
77 916
78 725
78 726
79 462
79 463
79 707
79 708
80 372
80 373
80 728
80 729
81 455
81 456
81 616
81 617
81 809
81 810
82 446
82 447
83 541
83 542
84 734
84 735
84 836
84 837
85 735
85 736
86 606
86 607
86 690
86 691
87 574
87 575
88 708
88 709
89 822
89 823
90 555
90 556
91 795
91 796
92 670
92 671
93 107
93 383
93 722
93 723
94 594
94 595
95 537
95 538
96 753
96 754
97 738
97 739
98 409
98 410
99 748
99 749
100 613
100 614
101 878
101 879
102 611
102 612
103 560
103 561
103 770
103 771
103 868
103 869
104 655
104 656
105 206
105 741
105 742
105 807
106 581
106 582
107 383
107 431
107 432
107 510
107 511
107 740
107 741
108 599
108 600
109 627
109 628
110 206
110 585
110 586
110 916
111 749
111 750
112 402
112 403
112 711
112 712
113 379
113 380
113 763
113 764
114 605
114 606
114 794
114 795
115 557
115 558
116 430
116 431
116 788
116 789
117 677
117 678
117 881
117 882
118 418
118 419
119 509
119 510
120 914
120 915
121 525
121 526
122 412
122 413
123 459
123 460
124 767
124 768
125 378
125 379
125 719
125 720
125 825
125 826
126 545
126 546
127 663
127 664
127 862
127 863
128 765
128 766
129 374
129 375
129 641
129 642
129 844
129 845
130 477
130 478
131 441
131 442
132 701
132 702
133 386
133 387
134 508
134 509
135 387
135 388
135 760
135 761
135 854
135 855
136 410
136 411
136 526
136 527
136 757
136 758
136 849
136 850
137 394
137 395
138 275
138 365
138 411
138 614
138 696
138 697
138 898
138 899
139 408
139 409
139 521
139 522
139 751
139 752
139 847
139 848
140 747
140 748
140 843
140 844
141 567
141 568
142 457
142 458
143 603
143 604
144 784
144 785
145 559
145 560
146 487
146 488
147 530
147 531
148 393
148 394
149 572
149 573
150 610
150 611
151 396
151 397
151 584
151 585
152 766
152 767
152 864
152 865
153 607
153 608
154 531
154 532
154 651
154 652
155 407
155 408
155 792
155 793
155 905
155 906
156 375
156 376
156 703
156 704
156 813
156 814
157 448
157 449
157 669
157 670
158 911
158 912
159 475
159 476
159 717
159 718
160 704
160 705
160 815
160 816
161 550
161 551
162 838
162 839
163 781
163 782
164 482
164 483
165 675
165 676
166 476
166 477
167 544
167 545
168 427
168 428
169 376
169 377
169 656
169 657
170 891
170 892
171 565
171 566
172 275
172 698
172 699
172 899
173 665
173 666
174 589
174 590
175 649
175 650
176 716
176 717
176 799
176 800
177 697
177 698
178 782
178 783
179 399
179 400
179 744
179 745
179 903
179 904
180 736
180 737
181 532
181 533
182 494
182 495
183 464
183 465
184 612
184 613
185 547
185 548
186 596
186 597
187 424
187 425
188 506
188 507
189 490
189 491
190 391
190 392
191 552
191 553
192 628
192 629
192 824
192 825
193 724
193 725
194 538
194 539
195 516
195 517
196 759
196 760
196 853
196 854
197 658
197 659
197 858
197 859
198 774
198 775
198 869
198 870
199 493
199 494
199 630
199 631
199 830
199 831
200 659
200 660
201 489
201 490
202 615
202 616
202 808
202 809
203 566
203 567
204 823
204 824
205 580
205 581
205 785
205 786
206 484
206 485
206 723
206 724
206 807
206 827
206 828
206 916
207 743
207 744
207 900
207 901
208 425
208 426
209 488
209 489
210 662
210 663
210 860
210 861
211 569
211 570
212 591
212 592
213 514
213 515
213 639
213 640
213 841
213 842
214 406
214 407
215 527
215 528
215 648
215 649
215 850
215 851
216 718
216 719
216 802
216 803
217 413
217 414
218 657
218 658
218 857
218 858
219 829
219 830
220 385
220 386
221 539
221 540
222 465
222 466
223 739
223 740
223 839
223 840
224 558
224 559
224 867
224 868
225 678
225 679
226 705
226 706
227 618
227 619
227 811
227 812
228 812
228 813
229 466
229 467
229 709
229 710
230 432
230 433
230 513
230 514
231 706
231 707
231 803
231 804
232 631
232 632
232 832
232 833
233 879
233 880
234 913
234 914
235 472
235 473
236 495
236 496
237 667
237 668
238 632
238 633
239 593
239 594
240 617
240 618
240 810
240 811
241 400
241 401
241 902
241 903
242 468
242 469
243 636
243 637
243 837
243 838
244 523
244 524
245 693
245 694
245 895
245 896
246 786
246 787
247 549
247 550
247 660
247 661
247 859
247 860
248 479
248 480
249 401
249 402
250 699
250 700
251 507
251 508
252 600
252 601
252 688
252 689
252 890
252 891
253 492
253 493
253 730
253 731
253 831
253 832
254 371
254 372
254 726
254 727
254 828
254 829
255 638
255 639
255 840
255 841
256 640
256 641
257 602
257 603
258 851
258 852
259 775
259 776
259 871
259 872
260 450
260 451
260 481
260 482
260 721
260 722
261 592
261 593
262 522
262 523
262 755
262 756
263 907
263 908
264 912
264 913
265 422
265 423
265 654
265 655
266 512
266 513
267 661
267 662
267 901
267 902
268 673
268 674
269 503
269 504
270 752
270 753
270 801
270 802
270 848
270 849
271 875
271 876
272 590
272 591
273 587
273 588
274 390
274 391
274 573
274 574
274 676
274 677
274 880
274 881
275 284
275 614
275 796
275 899
276 779
276 780
277 467
277 468
277 713
277 714
277 820
277 821
278 556
278 557
279 403
279 404
279 712
279 713
279 797
279 798
279 819
279 820
280 646
280 647
281 435
281 436
282 548
282 549
283 533
283 534
283 652
283 653
283 852
283 853
284 796
284 896
284 897
285 624
285 625
285 821
285 822
286 444
286 445
287 685
287 686
287 904
287 905
288 540
288 541
289 456
289 457
289 700
289 701
290 528
290 529
291 389
291 390
291 731
291 732
292 634
292 635
293 395
293 396
294 504
294 505
295 474
295 475
295 715
295 716
296 515
296 516
297 553
297 554
297 664
297 665
297 863
297 864
298 598
298 599
299 732
299 733
300 776
300 777
300 872
300 873
301 445
301 446
302 529
302 530
302 650
302 651
303 524
303 525
304 497
304 498
305 768
305 769
305 865
305 866
306 439
306 440
307 415
307 416
308 417
308 418
308 758
308 759
309 814
309 815
310 485
310 486
311 778
311 779
311 876
311 877
312 496
312 497
312 833
312 834
313 764
313 765
313 805
313 806
314 535
314 536
315 519
315 520
316 423
316 424
317 369
317 370
317 682
317 683
318 561
318 562
318 771
318 772
319 577
319 578
320 674
320 675
321 653
321 654
321 856
321 857
322 377
322 378
322 756
322 757
323 443
323 444
323 793
323 794
324 511
324 512
325 440
325 441
326 384
326 385
326 672
326 673
327 855
327 856
328 769
328 770
328 908
328 909
329 742
329 743
330 714
330 715
331 773
331 774
332 777
332 778
332 874
332 875
333 601
333 602
333 687
333 688
334 745
334 746
334 842
334 843
335 609
335 610
335 692
335 693
335 894
335 895
336 576
336 577
337 702
337 703
338 449
338 450
339 772
339 773
339 804
339 805
340 419
340 420
341 420
341 421
342 454
342 455
343 787
343 788
343 884
343 885
344 453
344 454
345 452
345 870
345 871
346 500
346 501
346 733
346 734
347 436
347 437
348 381
348 382
348 679
348 680
348 882
348 883
349 684
349 685
350 473
350 474
351 586
351 587
352 388
352 389
352 906
352 907
353 562
353 563
354 460
354 461
355 668
355 669
355 866
355 867
356 392
356 393
356 502
356 503
356 635
356 636
356 835
356 836
357 750
357 751
358 578
358 579
359 498
359 499
360 471
360 472
361 370
361 371
362 629
362 630
362 826
362 827
363 789
363 790
363 798
363 799
363 886
363 887
364 534
364 535
365 411
365 647
365 648
366 909
366 910
367 888
367 889
368 458
368 459
369 370
370 371
371 372
372 373
373 374
374 375
375 376
376 377
377 378
378 379
379 380
380 381
381 382
382 383
384 385
385 386
386 387
387 388
388 389
389 390
390 391
391 392
392 393
393 394
394 395
395 396
396 397
397 398
398 399
399 400
400 401
401 402
402 403
403 404
404 405
405 406
406 407
407 408
408 409
409 410
410 411
412 413
413 414
414 415
415 416
416 417
417 418
418 419
419 420
420 421
421 422
422 423
423 424
424 425
425 426
426 427
427 428
428 429
429 430
430 431
431 432
432 433
433 434
434 435
435 436
436 437
437 438
438 439
439 440
440 441
441 442
442 443
443 444
444 445
445 446
446 447
447 448
448 449
449 450
450 451
451 452
453 454
454 455
455 456
456 457
457 458
458 459
459 460
460 461
461 462
462 463
463 464
464 465
465 466
466 467
467 468
468 469
469 470
470 471
471 472
472 473
473 474
474 475
475 476
476 477
477 478
478 479
479 480
480 481
481 482
482 483
483 484
484 485
485 486
486 487
487 488
488 489
489 490
490 491
491 492
492 493
493 494
494 495
495 496
496 497
497 498
498 499
499 500
500 501
501 502
502 503
503 504
504 505
505 506
506 507
507 508
508 509
509 510
510 511
511 512
512 513
513 514
514 515
515 516
516 517
517 518
518 519
519 520
520 521
521 522
522 523
523 524
524 525
525 526
526 527
527 528
528 529
529 530
530 531
531 532
532 533
533 534
534 535
535 536
536 537
537 538
538 539
539 540
540 541
541 542
542 543
543 544
544 545
545 546
546 547
547 548
548 549
549 550
550 551
551 552
552 553
553 554
554 555
555 556
556 557
557 558
558 559
559 560
560 561
561 562
562 563
563 564
564 565
565 566
566 567
567 568
568 569
569 570
570 571
571 572
572 573
573 574
574 575
575 576
576 577
577 578
578 579
579 580
580 581
581 582
582 583
583 584
584 585
585 586
586 587
587 588
588 589
589 590
590 591
591 592
592 593
593 594
594 595
595 596
596 597
597 598
598 599
599 600
600 601
601 602
602 603
603 604
604 605
605 606
606 607
607 608
608 609
609 610
610 611
611 612
612 613
613 614
615 616
616 617
617 618
618 619
619 620
620 621
621 622
622 623
623 624
624 625
625 626
626 627
627 628
628 629
629 630
630 631
631 632
632 633
633 634
634 635
635 636
636 637
637 638
638 639
639 640
640 641
641 642
642 643
643 644
644 645
645 646
646 647
647 648
648 649
649 650
650 651
651 652
652 653
653 654
654 655
655 656
656 657
657 658
658 659
659 660
660 661
661 662
662 663
663 664
664 665
665 666
666 667
667 668
668 669
669 670
670 671
671 672
672 673
673 674
674 675
675 676
676 677
677 678
678 679
679 680
680 681
681 682
682 683
683 684
684 685
685 686
686 687
687 688
688 689
689 690
690 691
691 692
692 693
693 694
694 695
695 696
696 697
697 698
698 699
699 700
700 701
701 702
702 703
703 704
704 705
705 706
706 707
707 708
708 709
709 710
710 711
711 712
712 713
713 714
714 715
715 716
716 717
717 718
718 719
719 720
720 721
721 722
722 723
723 724
724 725
725 726
726 727
727 728
728 729
729 730
730 731
731 732
732 733
733 734
734 735
735 736
736 737
737 738
738 739
739 740
740 741
741 742
742 743
743 744
744 745
745 746
746 747
747 748
748 749
749 750
750 751
751 752
752 753
753 754
754 755
755 756
756 757
757 758
758 759
759 760
760 761
761 762
762 763
763 764
764 765
765 766
766 767
767 768
768 769
769 770
770 771
771 772
772 773
773 774
774 775
775 776
776 777
777 778
778 779
779 780
780 781
781 782
782 783
783 784
784 785
785 786
786 787
787 788
788 789
789 790
790 791
791 792
792 793
793 794
794 795
795 796
797 798
798 799
799 800
800 801
801 802
802 803
803 804
804 805
805 806
806 807
808 809
809 810
810 811
811 812
812 813
813 814
814 815
815 816
816 817
817 818
818 819
819 820
820 821
821 822
822 823
823 824
824 825
825 826
826 827
827 828
828 829
829 830
830 831
831 832
832 833
833 834
834 835
835 836
836 837
837 838
838 839
839 840
840 841
841 842
842 843
843 844
844 845
845 846
846 847
847 848
848 849
849 850
850 851
851 852
852 853
853 854
854 855
855 856
856 857
857 858
858 859
859 860
860 861
861 862
862 863
863 864
864 865
865 866
866 867
867 868
868 869
869 870
870 871
871 872
872 873
873 874
874 875
875 876
876 877
877 878
878 879
879 880
880 881
881 882
882 883
883 884
884 885
885 886
886 887
887 888
888 889
889 890
890 891
891 892
892 893
893 894
894 895
895 896
896 897
897 898
898 899
900 901
901 902
902 903
903 904
904 905
905 906
906 907
907 908
908 909
909 910
910 911
911 912
912 913
913 914
914 915
915 916
